3 
4  21 44 
5  00 14 29 43 58 
6  13 28 43 58 
7  13 28 43 58 
8  13 28 43 58 
9  13 28 43 58 
10  14 29 44 59 
11  14 29 44 59 
12  14 29 44 59 
13  14 27 42 
14  00 15 30 45 
15  02 17 31 46 
16  01 16 31 46 
17  01 16 31 45 
18  00 15 27 42 57 
19  12 25 39 54 
20  09 24 39 54 
21  09 24 39 54 
22  09 24 41 53 
23  06 19 
0 
